NAME : rl1304
COMMENT : 1304-city TSP (Reinelt)
TYPE : TSP
DIMENSION : 1304
EDGE_WEIGHT_TYPE : EUC_2D
NODE_COORD_SECTION
1 1.54400e+04 8.88800e+03
2 1.54400e+04 9.32800e+03
3 1.54400e+04 9.76800e+03
4 1.54400e+04 1.12640e+04
5 1.54400e+04 1.32880e+04
6 1.54400e+04 1.40580e+04
7 1.55360e+04 8.22800e+03
8 1.56160e+04 8.22800e+03
9 1.58240e+04 8.22800e+03
EOF
